h 7 6 -3 0
h 4 -5 0
h -2 3 0
h 2 4 0
h 2 -4 0
h 4 3 0
h 9 -4 7 0
1 -9 0
h -1 0
h -7 5 0
h -7 -8 0
h 6 -8 0
h 10 5 -2 0
1 -10 0
h 11 6 -3 0
1 -11 0
h 8 -4 0
h 12 0
h 13 -8 0
h 13 -3 4 0
1 -13 0
h 14 -4 0
1 -14 0
h 15 4 7 0
1 -15 0
h 7 -6 4 0
h 16 -5 7 0
1 -16 0
